
%FILE DATA:	Soccer Computational Problem for MiniZinc Models	%
%AUTHOR:	Jack Wall	%
%CONTACT:  	116397063@umail.ucc.ie			%
%LAST UPDATE:	03/03/2020, 12:08:00						%
%DESCRIPTION: 	18 games played with 12 games left				%


n=6; %number of teams

%Games to play
games=[|4,6|3,5|2,5|2,1|4,1|1,5|6,3|5,2|2,6|1,4|2,4|5,1|];

%Initial points
iPoints=[3,6,10,8,10,14];

%POSITION CONSTRAINTS
% [|teamID, operator, position|...]
% operators index:
%  1 for =  operator
%  2 for >  operator
%  3 for >= operator
%  4 for <  operator
%  5 for <= operator
positionConstraints=[|6,4,2|4,3,2|5,1,3|];